(set-logic QF_S)
(declare-fun var0 () String)
(assert (str.in.re var0 (re.++ (re.* (re.+ (str.to.re "000"))) (re.++ (re.+ (re.* (str.to.re "1"))) (re.++ (re.+ (re.* (str.to.re "22"))) (re.++ (re.union (re.* (str.to.re "33")) (re.* (str.to.re "44"))) (re.++ (re.union (re.* (str.to.re "5")) (re.* (str.to.re "66"))) (re.++ (re.* (re.union (str.to.re "777") (str.to.re "888"))) (re.++ (re.+ (re.union (str.to.re "99") (str.to.re "a"))) (re.++ (re.+ (re.* (str.to.re "bbb"))) (re.++ (re.union (re.+ (str.to.re "ccc")) (re.+ (str.to.re "dd"))) (re.union (re.* (str.to.re "eee")) (re.* (str.to.re "ff"))))))))))))))
(assert (str.in.re var0 (re.++ (re.+ (re.+ (str.to.re "00"))) (re.++ (re.union (re.+ (str.to.re "1")) (re.+ (str.to.re "2"))) (re.++ (re.union (re.* (str.to.re "333")) (re.* (str.to.re "444"))) (re.++ (re.+ (re.union (str.to.re "5") (str.to.re "666"))) (re.++ (re.+ (re.* (str.to.re "77"))) (re.++ (re.* (re.+ (str.to.re "88"))) (re.++ (re.union (re.union (str.to.re "99") (str.to.re "aa")) (re.union (str.to.re "bb") (str.to.re "ccc"))) (re.++ (re.+ (re.* (str.to.re "ddd"))) (re.++ (re.union (re.union (str.to.re "eee") (str.to.re "f")) (re.union (str.to.re "gg") (str.to.re "hh"))) (re.* (re.* (str.to.re "iii"))))))))))))))
(assert (str.in.re var0 (re.++ (re.* (re.* (str.to.re "0"))) (re.++ (re.union (re.union (str.to.re "1") (str.to.re "22")) (re.union (str.to.re "3") (str.to.re "4"))) (re.++ (re.+ (re.* (str.to.re "55"))) (re.++ (re.* (re.* (str.to.re "6"))) (re.++ (re.union (re.+ (str.to.re "77")) (re.+ (str.to.re "8"))) (re.++ (re.* (re.union (str.to.re "9") (str.to.re "aaa"))) (re.++ (re.* (re.* (str.to.re "bbb"))) (re.++ (re.* (re.union (str.to.re "c") (str.to.re "ddd"))) (re.++ (re.union (re.+ (str.to.re "e")) (re.+ (str.to.re "f"))) (re.+ (re.union (str.to.re "ggg") (str.to.re "h"))))))))))))))
(assert (str.in.re var0 (re.++ (re.+ (re.+ (str.to.re "0"))) (re.++ (re.union (re.union (str.to.re "11") (str.to.re "2")) (re.union (str.to.re "3") (str.to.re "44"))) (re.++ (re.union (re.* (str.to.re "55")) (re.* (str.to.re "666"))) (re.++ (re.* (re.* (str.to.re "777"))) (re.++ (re.* (re.* (str.to.re "8"))) (re.++ (re.+ (re.+ (str.to.re "9"))) (re.++ (re.+ (re.union (str.to.re "aa") (str.to.re "b"))) (re.++ (re.+ (re.+ (str.to.re "cc"))) (re.++ (re.+ (re.* (str.to.re "dd"))) (re.+ (re.union (str.to.re "ee") (str.to.re "fff"))))))))))))))
(assert (str.in.re var0 (re.++ (re.* (re.+ (str.to.re "00"))) (re.++ (re.+ (re.* (str.to.re "11"))) (re.++ (re.union (re.union (str.to.re "222") (str.to.re "3")) (re.union (str.to.re "444") (str.to.re "555"))) (re.++ (re.+ (re.union (str.to.re "6") (str.to.re "77"))) (re.++ (re.union (re.* (str.to.re "88")) (re.* (str.to.re "9"))) (re.++ (re.+ (re.* (str.to.re "a"))) (re.++ (re.* (re.* (str.to.re "b"))) (re.++ (re.+ (re.+ (str.to.re "cc"))) (re.++ (re.* (re.union (str.to.re "dd") (str.to.re "ee"))) (re.union (re.+ (str.to.re "ff")) (re.+ (str.to.re "gg"))))))))))))))
(assert (str.in.re var0 (re.++ (re.+ (re.union (str.to.re "00") (str.to.re "11"))) (re.++ (re.+ (re.+ (str.to.re "222"))) (re.++ (re.* (re.+ (str.to.re "33"))) (re.++ (re.* (re.* (str.to.re "44"))) (re.++ (re.+ (re.* (str.to.re "555"))) (re.++ (re.union (re.* (str.to.re "66")) (re.* (str.to.re "77"))) (re.++ (re.union (re.* (str.to.re "88")) (re.* (str.to.re "9"))) (re.++ (re.union (re.* (str.to.re "aaa")) (re.* (str.to.re "bbb"))) (re.++ (re.+ (re.* (str.to.re "c"))) (re.union (re.union (str.to.re "ddd") (str.to.re "e")) (re.union (str.to.re "f") (str.to.re "ggg"))))))))))))))
(assert (str.in.re var0 (re.++ (re.+ (re.+ (str.to.re "00"))) (re.++ (re.+ (re.* (str.to.re "1"))) (re.++ (re.* (re.+ (str.to.re "2"))) (re.++ (re.* (re.* (str.to.re "333"))) (re.++ (re.union (re.* (str.to.re "4")) (re.* (str.to.re "5"))) (re.++ (re.+ (re.union (str.to.re "6") (str.to.re "77"))) (re.++ (re.* (re.* (str.to.re "88"))) (re.++ (re.* (re.union (str.to.re "99") (str.to.re "aaa"))) (re.++ (re.+ (re.+ (str.to.re "b"))) (re.* (re.union (str.to.re "c") (str.to.re "ddd"))))))))))))))
(check-sat)